p cnf 7 27
4 -1 0
1 3 0
5 -3 0
-6 -4 -2 0
-5 -3 -1 0
1 4 -2 7 0
3 -5 -2 0
-5 -4 -3 7 0
5 -2 6 0
-6 0
2 0
-7 3 4 0
-7 -5 4 0
-7 -4 6 0
1 2 6 -2 0
4 0
-4 -1 7 0
6 7 0
-7 2 -5 -4 0
-4 -3 -2 0
1 -2 6 0
-7 7 0
1 2 -4 7 0
-7 -5 4 7 0
6 -1 0
3 5 6 0
-7 -4 0
